(set-logic BV) (define-fun origCir ((n244 Bool) (n325 Bool) (n254 Bool) (n207 Bool) (i51 Bool)) Bool (xor (and (xor n325 (not (and n254 n207))) n244) i51)) (synth-fun skel ((n244 Bool) (n325 Bool) (n254 Bool) (n207 Bool) (i51 Bool)) Bool) (declare-var n244 Bool) (declare-var n325 Bool) (declare-var n254 Bool) (declare-var n207 Bool) (declare-var i51 Bool) (constraint (= (origCir n244 n325 n254 n207 i51) (skel n244 n325 n254 n207 i51))) (check-synth)
